npieces = 10;	
nplayers = 10;	
duration = [7, 3, 3, 9, 4, 5, 7, 3, 8, 2];
rehearsal = [[1, 0, 1, 0, 1, 0, 1, 1, 1, 1], [1, 1, 1, 1, 1, 0, 0, 1, 0, 1], [1, 1, 0, 1, 1, 1, 0, 1, 0, 1], [1, 1, 1, 0, 1, 1, 0, 1, 1, 1], [1, 1, 1, 1, 1, 1, 1, 1, 1, 1], [0, 1, 0, 0, 1, 1, 1, 1, 1, 1], [1, 1, 1, 1, 1, 1, 0, 0, 0, 1], [1, 0, 1, 1, 0, 1, 0, 0, 0, 1], [0, 0, 1, 0, 0, 0, 0, 0, 1, 0], [1, 1, 0, 0, 1, 0, 0, 0, 1, 1]];